problems/csplib-prob007/AllIntervalSeries-models/noch/O2/lingeling/model-08-solution000001.eprime-solution
language ESSENCE' 1.0

letting s_Function1D be [3, 4, 6, 2, 5, 0, 7, 1; int(1..8)]
letting v_Function1D be [1, 2, 4, 3, 5, 7, 6; int(1..7)]
