problems/csplib-prob007/AllIntervalSeries-models/noch/O2/lingeling/model-08-solution000001.solution
language Essence 1.3

letting s be function(1 --> 3, 2 --> 4, 3 --> 6, 4 --> 2, 5 --> 5, 6 --> 0, 7 --> 7, 8 --> 1)
letting v be function(1 --> 1, 2 --> 2, 3 --> 4, 4 --> 3, 5 --> 5, 6 --> 7, 7 --> 6)
